Read MPS format model from file dat/rmp/DER_48_8192_40.mps
Reading time = 0.73 seconds
: 8240 rows, 49296 columns, 2140643 nonzeros
Gurobi Optimizer version 9.0.0 build v9.0.0rc2 (linux64)
Optimize a model with 8240 rows, 49296 columns and 2140643 nonzeros
Model fingerprint: 0xc66346b4
Coefficient statistics:
  Matrix range     [8e-05, 1e+01]
  Objective range  [4e-01, 1e+03]
  Bounds range     [5e+04, 5e+04]
  RHS range        [1e+00, 1e+00]
Ordering time: 0.01s

Barrier statistics:
 AA' NZ     : 3.750e+05
 Factor NZ  : 4.681e+05 (roughly 27 MBytes of memory)
 Factor Ops : 2.758e+07 (less than 1 second per iteration)
 Threads    : 1

                  Objective                Residual
Iter       Primal          Dual         Primal    Dual     Compl     Time
   0   1.28184947e+09 -1.06448744e+08  3.38e+07 1.74e-02  5.51e+05     0s
   1   2.07604671e+07 -1.64008709e+07  4.37e+05 1.82e-12  7.52e+03     1s
   2   2.19769157e+06 -6.52369405e+06  4.66e+04 3.64e-12  8.95e+02     1s
   3   5.77721693e+04 -4.18580839e+06  6.19e+02 3.64e-12  9.41e+01     1s
   4   2.48650735e+04 -1.67606699e+05  1.76e-10 1.82e-12  3.90e+00     1s
   5   2.47939319e+04  1.05419784e+04  1.26e-10 2.73e-12  2.89e-01     1s
   6   2.46423526e+04  2.19661741e+04  3.14e-10 3.64e-12  5.42e-02     1s
   7   2.44120209e+04  2.37429015e+04  1.13e-10 1.82e-12  1.36e-02     1s
   8   2.42457104e+04  2.39702508e+04  1.87e-10 1.82e-12  5.58e-03     2s
   9   2.41515767e+04  2.40513723e+04  3.13e-10 1.82e-12  2.03e-03     2s
  10   2.41290683e+04  2.40674789e+04  3.36e-10 1.82e-12  1.25e-03     2s
  11   2.41223529e+04  2.40782745e+04  3.62e-10 1.82e-12  8.93e-04     2s
  12   2.41057657e+04  2.40843599e+04  7.54e-10 1.82e-12  4.34e-04     2s
  13   2.40964741e+04  2.40876757e+04  1.01e-09 9.09e-13  1.78e-04     2s
  14   2.40939501e+04  2.40895814e+04  1.05e-09 3.64e-12  8.85e-05     2s
  15   2.40927311e+04  2.40907147e+04  1.11e-09 1.82e-12  4.09e-05     3s
  16   2.40920655e+04  2.40912831e+04  1.35e-09 1.82e-12  1.59e-05     3s
  17   2.40917617e+04  2.40916353e+04  2.31e-09 2.73e-12  2.56e-06     3s
  18   2.40917252e+04  2.40916659e+04  3.79e-09 1.82e-12  1.20e-06     3s
  19   2.40916829e+04  2.40916799e+04  1.85e-08 1.82e-12  5.97e-08     3s
  20   2.40916812e+04  2.40916808e+04  2.28e-07 1.82e-12  7.06e-09     3s
  21   2.40916810e+04  2.40916810e+04  2.72e-06 1.82e-12  5.46e-10     4s
  22   2.40916810e+04  2.40916810e+04  3.21e-06 1.82e-12  1.82e-11     4s
  23   2.40916810e+04  2.40916810e+04  4.94e-06 1.82e-12  8.94e-12     4s
  24   2.40916810e+04  2.40916810e+04  7.60e-07 1.82e-12  2.47e-14     4s

Barrier solved model in 24 iterations and 3.99 seconds
Optimal objective 2.40916810e+04

Solve time: 3.995293436
Barrier iterations: 24
